MAXIMIZE
OBJ:  -0.46x0 -0.64x1 -5.88x2 +8.91x3 -106.99x4 -26.92x5 +43.83x6
SUBJECT TO

C3:  +11.82x0 +14.43x1 +14.08x2 +15.50x3 +11.11x4 +5.27x5 +14.75x6 + s0 = 83.51
C4:  +5.69x0 +16.74x1 +18.79x2 +6.99x3 +19.28x4 +12.88x5 +14.90x6 + s1 = 127.75
C5:  +10.33x0 +19.23x1 +14.25x2 +0.77x3 +0.88x4 +5.11x5 +13.15x6 + s2 = 90.15
Binary
x3
x4
General
x5
x6
END